NAME : u1817.tour
COMMENT : Optimum tour for u1817.tsp (Length 57201)
TYPE : TOUR
DIMENSION : 1817
TOUR_SECTION
154
204
203
202
201
200
209
208
207
206
205
151
150
149
148
147
213
212
211
210
217
216
215
214
146
145
144
143
142
141
218
219
220
221
222
223
224
140
139
138
137
136
135
225
226
228
227
1685
1684
1683
1682
1681
1680
1676
1679
1678
1677
1688
1687
1686
1689
1690
1691
1692
1693
1694
1695
1696
1697
1698
1699
1700
1701
1711
1710
1709
1708
1707
1706
1705
1704
1703
1702
1714
1713
1712
1715
1716
1717
1718
1719
1724
1723
1722
1721
1720
1725
1726
1727
1728
1729
1730
1731
1732
1733
1734
1735
1736
1737
1738
1739
1740
1750
1749
1748
1747
1746
1745
1744
1743
1742
1741
1753
1752
1751
1754
1755
1756
1757
1758
1760
1759
1561
1560
1559
1761
1762
1763
1767
1764
1766
1765
1772
1773
1771
1768
1770
1556
1557
1558
1551
1553
1555
1769
1774
1554
1552
1549
1550
1529
1528
1531
1530
1546
1547
1548
1543
1542
1541
1540
1775
1776
1778
1780
1785
1783
1784
1782
1781
1779
1777
1537
1535
1536
1539
1538
1544
1545
1532
1534
1533
1525
1524
1526
1523
1527
1522
1521
1519
1517
1516
1515
1506
1507
1514
1513
1518
1520
1512
1511
1510
1509
1508
1498
1499
1500
1505
1504
1503
1502
1501
1491
1489
1490
1487
1488
1486
1485
1484
1482
1483
1481
1479
1480
1478
1477
1475
1474
1476
1473
1471
1470
1472
1469
1468
1449
1455
1450
1454
1453
1451
1456
1457
1448
1467
1466
1465
1464
1463
1461
1462
1460
1459
1458
1447
1446
1445
1444
1443
1442
1441
1440
1439
1438
1437
1436
470
483
484
485
481
480
482
477
479
478
476
471
475
474
472
473
502
503
504
501
499
498
495
494
491
490
486
1452
487
488
489
492
493
496
497
500
506
505
507
510
508
509
511
514
512
513
515
517
516
526
527
523
525
524
528
530
529
532
531
549
550
521
522
520
519
518
554
557
556
555
572
573
574
571
570
569
568
567
566
563
564
562
565
561
560
558
559
553
552
551
548
547
546
545
544
538
543
542
536
535
533
534
537
541
540
539
719
720
721
722
718
717
716
715
714
712
713
730
731
732
728
727
723
724
725
726
733
729
739
742
741
740
750
749
748
747
746
745
743
738
737
734
736
735
744
759
758
757
756
755
751
754
753
752
768
762
761
760
767
766
765
764
763
769
770
771
784
785
786
787
788
789
790
777
778
779
780
781
782
783
684
688
687
689
686
685
694
696
695
697
698
699
700
701
693
692
691
690
702
703
704
705
706
707
709
708
607
608
609
610
611
606
605
604
603
711
710
602
601
600
599
598
597
596
583
584
582
585
580
581
578
579
576
577
575
464
465
466
467
468
463
462
461
460
589
588
587
586
595
594
593
592
591
590
459
458
614
615
616
617
613
612
618
619
620
621
622
623
624
625
626
627
628
629
630
638
639
640
641
642
643
644
645
635
636
637
634
633
632
631
683
682
681
680
679
678
677
676
670
669
668
667
666
665
664
659
660
661
662
663
671
672
673
675
674
654
655
656
657
658
1006
1005
1004
1003
1002
1001
653
652
651
650
649
646
648
647
425
426
427
428
429
430
431
424
419
418
417
416
415
414
413
1029
1030
1031
1032
1033
1034
1035
1036
373
374
375
376
377
378
379
384
386
385
383
380
382
381
372
369
371
370
368
367
366
365
357
358
359
360
364
363
362
361
1343
1342
1341
1340
1339
1338
1337
1085
1084
1083
1082
1076
1075
1074
1073
329
330
331
332
335
334
333
356
353
352
342
340
336
337
1070
338
339
341
343
351
354
355
350
349
348
347
346
345
344
1057
1056
1055
1054
1053
1052
1051
1050
1037
1038
1039
1049
1048
1047
1046
971
972
1045
1044
1043
1042
1041
1040
987
988
1022
1023
1024
1025
1026
1027
1028
1010
1016
1011
1015
1014
1013
1012
1017
1018
1000
999
1007
998
1008
1019
1009
1020
1021
995
994
993
996
997
992
991
990
989
986
985
984
983
974
973
975
976
977
978
979
982
981
980
943
942
941
940
939
938
937
950
949
948
947
946
945
936
944
923
924
925
926
935
934
933
908
909
932
931
930
929
928
927
922
921
920
919
805
804
803
802
801
800
796
797
798
799
808
807
806
809
810
811
812
813
814
795
794
793
792
791
776
775
774
772
773
823
822
821
820
819
818
817
816
815
838
837
836
835
834
833
825
824
832
831
830
829
828
827
826
885
884
883
882
881
880
879
878
877
893
892
891
890
889
888
887
886
851
850
843
849
848
839
840
841
842
847
846
844
852
845
853
874
875
873
872
876
860
871
870
861
862
865
864
863
894
895
896
897
898
899
900
901
869
868
867
866
859
858
857
856
855
854
918
917
916
915
914
913
912
911
910
903
902
904
905
907
906
952
951
954
953
956
955
958
957
959
960
962
961
963
964
966
965
967
968
970
969
1059
1058
1060
1061
1062
1063
1065
1064
1066
1067
1069
1068
1072
1071
327
328
326
325
323
324
322
321
318
316
317
319
320
1077
1078
1079
1080
1081
1087
1086
1088
1089
1096
1097
1098
1099
1119
1120
1093
1094
1095
1092
1091
1090
1322
1323
1324
1325
1326
1327
1328
1329
1330
1331
1332
1333
1371
1372
1373
1374
1375
1376
1377
1378
1379
1362
1363
1364
1365
1366
1367
1368
1369
1370
1344
1345
1346
1347
1348
1358
1357
1356
1355
1354
1353
1352
1351
1350
1349
387
388
389
390
391
394
393
392
407
408
409
406
404
405
403
402
400
401
399
395
396
398
397
412
411
410
420
421
422
423
437
436
435
434
433
432
438
439
440
441
442
443
444
447
446
445
453
454
455
457
456
452
451
450
449
448
1408
1407
1406
1405
1404
1403
1415
1414
1413
1412
1411
1410
1409
1421
1420
1419
1418
1417
1416
1431
1430
1429
1428
1427
1423
1422
469
1426
1425
1424
1435
1434
1433
1432
1227
1228
1226
1225
1224
1222
1223
1221
1220
1246
1245
1232
1231
1230
1229
1241
1242
1243
1244
1233
1247
1248
1249
1234
1235
1236
1237
1238
1239
1240
1402
1401
1400
1399
1398
1261
1262
1260
1388
1387
1397
1396
1395
1394
1393
1359
1360
1361
1392
1391
1390
1389
1386
1385
1384
1283
1284
1285
1286
1287
1278
1277
1276
1275
1274
1273
1272
1271
1270
1264
1263
1265
1266
1267
1268
1269
1193
1192
1194
1195
1196
1197
1255
1256
1257
1258
1259
1254
1253
1252
1204
1203
1202
1201
1200
1199
1198
1209
1208
1207
1206
1205
1251
1250
1219
1218
1217
1210
1211
1212
1213
1214
1599
1598
1597
1596
1215
1216
1591
1592
1593
1594
1595
1587
1588
1589
1590
1586
1585
1584
1583
1582
1581
1580
1579
1578
1577
1576
1492
1497
1496
1495
1565
1564
1563
1562
1569
1568
1567
1566
1494
1493
1575
1574
1573
1572
1571
1570
1609
1608
1607
1606
1605
1604
1603
1600
1601
1602
1612
1611
1610
1613
1615
1616
1614
1617
1618
1619
1187
1188
1189
1184
1190
1191
1182
1183
1185
1620
1621
1186
1623
1622
1629
1624
1625
1628
1626
1627
1630
1633
1631
1632
1634
1635
1637
1638
1636
1639
1640
1644
1643
1641
1642
1172
1171
1173
1170
1169
1174
1176
1177
1180
1181
1179
1178
1175
1289
1288
1279
1280
1281
1282
1381
1382
1383
1380
1298
1297
1296
1295
1294
1293
1292
1291
1290
1138
1139
1140
1141
1299
1300
1301
1302
1303
1312
1313
1314
1315
1316
1317
1334
1335
1336
1321
1320
1319
1318
1311
1310
1309
1308
1307
1306
1305
1304
1128
1129
1135
1136
1137
1142
1143
1144
1133
1134
1132
1131
1130
1124
1125
1126
1127
1123
1122
1121
1116
1117
1118
1100
1101
1102
1103
1104
1105
1106
1107
1108
1109
1110
1111
1112
1113
1114
1115
305
306
307
308
309
310
311
312
313
314
315
303
304
302
301
299
300
297
298
296
295
293
294
292
290
289
291
288
287
286
285
284
283
282
273
272
271
270
269
263
262
261
260
259
258
249
248
247
246
245
127
126
125
124
122
123
121
120
117
119
118
114
116
115
128
129
130
131
132
242
244
243
250
251
252
253
254
255
256
257
264
265
266
267
268
274
275
276
277
278
279
281
280
1147
1149
1150
1152
1148
1146
1145
1153
1155
1154
1156
1157
1159
1158
1160
1161
1162
1163
1164
1165
1168
1166
1167
1650
1651
1649
1648
1653
1652
1657
1658
1659
1662
1664
1665
1666
1151
1667
1668
1670
1669
1671
1663
1661
1660
1656
1655
1654
1645
1646
1647
1675
1674
1673
1672
240
239
238
237
236
235
234
241
233
232
231
230
229
134
133
113
112
111
110
109
108
107
106
105
93
92
104
103
102
101
100
99
98
97
96
95
94
91
82
81
83
84
85
90
89
88
87
86
80
79
78
77
76
75
74
73
72
71
65
66
67
68
70
69
55
56
57
58
59
60
64
63
62
61
52
53
54
43
42
44
45
46
51
50
49
48
47
39
40
41
38
37
36
35
34
33
32
31
30
29
28
27
26
25
24
23
22
21
20
19
18
17
16
15
14
13
12
11
10
9
8
7
6
5
4
3
2
1
1817
1816
1815
1814
1813
1812
1809
1808
1811
1810
1807
1806
1805
1804
1803
1788
1787
1786
1789
1790
1791
1792
1802
1801
1800
1799
1798
1797
1796
1795
1794
1793
178
177
176
175
174
173
170
171
172
182
181
180
179
183
184
185
186
168
169
167
166
165
190
189
188
187
193
192
191
162
163
164
158
159
160
161
194
195
196
197
198
199
157
156
155
152
153
-1
EOF
